WARNING: for repeatability, setting FPU to use double precision
============================[ Problem Statistics ]=============================
|                                                                             |
|  Number of variables:           100                                         |
|  Number of clauses:             449                                         |
|  Parse time:                   0.00 s                                       |
|  Eliminated clauses:           0.00 Mb                                      |
|  Simplification time:          0.00 s                                       |
|                                                                             |
============================[ Search Statistics ]==============================
| Conflicts |          ORIGINAL         |          LEARNT          | Progress |
|           |    Vars  Clauses Literals |    Limit  Clauses Lit/Cl |          |
===============================================================================
|       100 |      98      447     1351 |      163      100      7 |  0.010 % |
===============================================================================
restarts              : 2
conflicts             : 179            (61428 /sec)
decisions             : 227            (0.00 % random) (77900 /sec)
propagations          : 3956           (1357584 /sec)
conflict literals     : 1181           (15.40 % deleted)
Memory used           : 13.00 MB
CPU time              : 0.002914 s

SATISFIABLE
